data;


param d:= 100;
param r:=5;
param p:=0.100000;
param M:=1000;
param U:=
         1         1       -2.237057e-01
         2         1       -1.034658e+00
         3         1        8.336765e-01
         4         1        1.639974e-01
         5         1       -1.086007e+00
         6         1        2.151938e+00
         7         1       -4.436822e-01
         8         1       -2.393313e+00
         9         1       -4.551366e-01
        10         1        5.629329e-01
        11         1       -1.887610e+00
        12         1       -7.914940e-01
        13         1        6.020466e-01
        14         1       -1.308536e+00
        15         1       -7.419967e-01
        16         1       -2.453446e-01
        17         1        1.381132e+00
        18         1        1.207046e+00
        19         1        4.919614e-01
        20         1       -4.194960e-01
        21         1       -6.111336e-03
        22         1       -6.703353e-01
        23         1        8.014093e-01
        24         1       -1.424490e+00
        25         1        1.066469e+00
        26         1        5.670738e-01
        27         1       -4.368060e-01
        28         1       -2.705335e-01
        29         1       -6.494399e-01
        30         1        6.854767e-01
        31         1        1.832135e-01
        32         1       -5.641684e-01
        33         1        7.634315e-02
        34         1        3.428981e-01
        35         1       -2.320061e+00
        36         1       -3.709249e-01
        37         1        2.534656e-01
        38         1       -1.240392e+00
        39         1       -7.923253e-01
        40         1       -1.040066e+00
        41         1       -1.009574e+00
        42         1        1.393462e+00
        43         1       -1.218987e+00
        44         1       -8.431178e-01
        45         1        2.126660e+00
        46         1       -2.426606e+00
        47         1       -7.977909e-01
        48         1       -8.690700e-01
        49         1        7.407941e-01
        50         1       -1.960351e-01
        51         1        1.434404e-01
        52         1        1.346455e+00
        53         1        4.609859e-01
        54         1        3.208334e-01
        55         1        1.200760e+00
        56         1       -1.242359e+00
        57         1        1.224127e+00
        58         1       -4.917610e-01
        59         1        1.089213e+00
        60         1        6.468373e-01
        61         1       -7.367674e-01
        62         1       -5.987682e-01
        63         1       -1.007823e+00
        64         1        7.924458e-01
        65         1        3.921346e-03
        66         1       -3.404773e-01
        67         1        1.242429e+00
        68         1        2.266616e-01
        69         1        1.502052e-01
        70         1        1.264373e-01
        71         1        1.000842e+00
        72         1        2.117382e+00
        73         1        9.679956e-01
        74         1        1.099856e-01
        75         1        1.043695e-01
        76         1        2.350563e-01
        77         1       -2.155552e-01
        78         1        4.469837e-01
        79         1       -1.779555e+00
        80         1       -4.408367e-01
        81         1        1.410448e+00
        82         1        6.277505e-01
        83         1        1.436880e+00
        84         1       -1.017547e-01
        85         1       -8.416375e-01
        86         1       -4.305166e-01
        87         1       -2.625086e-01
        88         1       -1.008229e+00
        89         1        6.284628e-01
        90         1       -5.125334e-01
        91         1       -6.859697e-01
        92         1        4.205099e-01
        93         1       -1.839168e+00
        94         1        1.824612e+00
        95         1       -2.096135e+00
        96         1       -2.275917e-01
        97         1       -1.510142e+00
        98         1        7.926396e-01
        99         1       -4.221667e-02
       100         1       -1.127013e+00
         1         2       -9.825003e-01
         2         2        1.228072e+00
         3         2        3.876920e-01
         4         2        2.348979e+00
         5         2        1.921293e+00
         6         2       -1.155477e+00
         7         2        1.453714e-01
         8         2       -6.830019e-01
         9         2       -2.491348e+00
        10         2       -3.381533e-01
        11         2        2.077123e+00
        12         2        3.092680e-01
        13         2       -3.654979e+00
        14         2       -5.094136e-01
        15         2       -5.238892e-01
        16         2        1.005077e+00
        17         2        1.606002e+00
        18         2        1.189473e+00
        19         2        1.926204e-01
        20         2       -5.465306e-01
        21         2       -5.584340e-02
        22         2        6.459018e-01
        23         2       -1.629948e-01
        24         2        1.471371e+00
        25         2       -1.834260e-01
        26         2        8.938315e-01
        27         2        1.180576e+00
        28         2        1.127127e+00
        29         2       -2.167238e+00
        30         2        2.921938e-01
        31         2       -1.704189e-01
        32         2        6.676692e-02
        33         2        1.089086e+00
        34         2       -2.401622e-01
        35         2        4.314322e-01
        36         2       -1.094494e+00
        37         2       -5.846805e-02
        38         2        1.246834e+00
        39         2       -9.895758e-01
        40         2        1.234837e+00
        41         2       -1.372755e+00
        42         2       -6.698088e-01
        43         2       -1.543136e+00
        44         2        1.467292e-01
        45         2        1.659803e+00
        46         2        1.529971e-01
        47         2        1.452780e+00
        48         2        3.872441e-01
        49         2       -2.418172e-01
        50         2        1.477281e+00
        51         2        1.324458e+00
        52         2        2.202949e+00
        53         2        4.663307e-02
        54         2        9.759154e-01
        55         2        6.483219e-01
        56         2       -4.723506e-01
        57         2        2.428998e-01
        58         2       -2.073472e+00
        59         2       -7.738670e-01
        60         2        1.229536e-01
        61         2        9.073276e-01
        62         2       -2.786489e-01
        63         2        8.453761e-01
        64         2       -2.864380e-01
        65         2       -6.185861e-01
        66         2        1.766194e-01
        67         2        4.281853e-01
        68         2       -8.523316e-01
        69         2        1.125505e+00
        70         2       -1.451058e+00
        71         2        1.553403e+00
        72         2       -9.390195e-02
        73         2       -5.894663e-01
        74         2        3.246631e-01
        75         2        1.536898e-01
        76         2       -1.239603e+00
        77         2        1.226699e+00
        78         2        9.592727e-01
        79         2       -1.262525e+00
        80         2       -4.741921e-01
        81         2       -4.389704e-01
        82         2        1.256114e-01
        83         2        1.785645e+00
        84         2        2.026063e+00
        85         2        4.921173e-01
        86         2       -7.072730e-01
        87         2        1.670350e-01
        88         2        9.493724e-01
        89         2        8.852728e-02
        90         2       -3.752856e-01
        91         2       -1.925790e-01
        92         2        1.397733e+00
        93         2        1.723427e+00
        94         2        8.608762e-01
        95         2       -5.584174e-01
        96         2       -4.399365e-01
        97         2        2.160266e+00
        98         2       -6.761591e-01
        99         2        5.590325e-01
       100         2       -2.384030e-01
         1         3        8.202077e-01
         2         3       -1.670018e+00
         3         3        1.476271e+00
         4         3        9.983669e-01
         5         3       -2.201328e-01
         6         3       -1.177463e+00
         7         3       -2.721974e-01
         8         3       -7.661933e-01
         9         3       -1.084906e+00
        10         3        8.213296e-01
        11         3        2.130638e+00
        12         3       -1.493747e+00
        13         3       -8.872600e-01
        14         3       -1.468879e+00
        15         3       -3.499684e-01
        16         3       -2.765595e+00
        17         3       -8.621254e-01
        18         3       -1.808345e-01
        19         3        2.464512e-01
        20         3        8.054616e-01
        21         3        1.064620e+00
        22         3        3.790865e-01
        23         3        3.228412e-01
        24         3        8.854173e-01
        25         3        1.894049e-01
        26         3        1.593138e-01
        27         3        4.079374e-01
        28         3        2.237273e-01
        29         3        6.344571e-01
        30         3        1.424988e+00
        31         3       -3.058603e-01
        32         3       -9.737425e-01
        33         3        1.371025e+00
        34         3       -4.891759e-01
        35         3        1.343146e+00
        36         3        1.198448e-01
        37         3       -7.497740e-01
        38         3        6.110853e-01
        39         3       -5.207326e-01
        40         3       -3.964362e-01
        41         3       -4.571393e-01
        42         3       -1.127540e+00
        43         3        4.542873e-01
        44         3        1.886394e+00
        45         3        2.311544e-01
        46         3       -1.064566e+00
        47         3       -7.406410e-01
        48         3        1.092804e+00
        49         3        7.364839e-01
        50         3        1.904584e+00
        51         3       -1.815720e+00
        52         3       -2.047753e-02
        53         3        4.129115e-01
        54         3        1.426818e+00
        55         3       -9.248239e-01
        56         3       -8.790089e-01
        57         3        3.562062e-01
        58         3       -1.662134e+00
        59         3       -3.667650e-02
        60         3        1.517280e+00
        61         3       -1.531064e+00
        62         3       -3.328348e-01
        63         3        1.030053e+00
        64         3       -6.330785e-01
        65         3       -1.339820e+00
        66         3       -1.399737e+00
        67         3       -9.412902e-02
        68         3       -7.975475e-02
        69         3        2.368252e+00
        70         3       -3.568858e-01
        71         3        5.902445e-02
        72         3       -1.612518e+00
        73         3        6.184930e-01
        74         3        3.902844e-01
        75         3        1.712761e-01
        76         3       -1.029672e+00
        77         3       -6.404390e-01
        78         3        3.870253e-01
        79         3        4.065570e-01
        80         3       -6.492994e-01
        81         3       -3.557191e-01
        82         3        1.256478e-01
        83         3        8.149796e-01
        84         3        1.482059e+00
        85         3       -1.143367e-01
        86         3       -1.331578e+00
        87         3       -2.928727e-01
        88         3       -5.194629e-01
        89         3       -2.733419e-01
        90         3        4.623770e-01
        91         3       -1.375317e+00
        92         3        1.347111e+00
        93         3       -5.845382e-01
        94         3        4.685579e-01
        95         3       -6.599971e-01
        96         3       -3.900407e-01
        97         3        9.725801e-02
        98         3       -4.900474e-01
        99         3       -1.290905e+00
       100         3        1.156285e+00
         1         4       -2.133640e-01
         2         4       -2.597566e-01
         3         4       -1.879750e+00
         4         4        2.925028e-01
         5         4       -1.044137e+00
         6         4        6.861928e-01
         7         4        1.319275e+00
         8         4        7.350369e-01
         9         4        2.251002e+00
        10         4        1.213350e+00
        11         4       -1.463039e+00
        12         4        1.340839e+00
        13         4        2.523168e+00
        14         4       -1.683254e-01
        15         4        8.154121e-01
        16         4       -8.656436e-01
        17         4       -3.212347e-01
        18         4        4.737893e-01
        19         4       -3.553721e-01
        20         4        2.356777e-01
        21         4       -4.776607e-01
        22         4        2.596198e-01
        23         4        5.345420e-01
        24         4        3.019016e+00
        25         4       -3.957897e-01
        26         4        1.781712e+00
        27         4        6.859557e-01
        28         4        3.023875e-02
        29         4       -1.615683e+00
        30         4       -3.950015e-01
        31         4        3.338975e-01
        32         4        9.321767e-02
        33         4        8.803352e-01
        34         4       -5.543819e-01
        35         4        4.632366e-01
        36         4       -1.689841e-01
        37         4       -3.568798e-02
        38         4       -1.533516e-01
        39         4       -5.293180e-01
        40         4        5.512441e-02
        41         4       -3.506150e-01
        42         4        1.675547e+00
        43         4        1.673381e-01
        44         4       -8.199651e-01
        45         4       -1.526123e-01
        46         4        6.285477e-01
        47         4        1.897415e+00
        48         4        9.304103e-01
        49         4        4.257772e-01
        50         4       -3.283225e-01
        51         4        2.741728e-01
        52         4        3.829771e-01
        53         4        4.804180e-01
        54         4        9.687047e-02
        55         4       -1.497948e-01
        56         4       -1.812452e-01
        57         4        1.637335e+00
        58         4       -7.177397e-01
        59         4       -1.329691e-01
        60         4        3.878273e-02
        61         4        1.166324e+00
        62         4       -2.573871e-01
        63         4       -1.305036e-01
        64         4       -1.074845e+00
        65         4        2.495360e-01
        66         4        7.264148e-01
        67         4       -6.247829e-01
        68         4        5.240005e-01
        69         4        5.195135e-01
        70         4       -6.899072e-01
        71         4        3.998613e-01
        72         4       -3.684251e-02
        73         4        3.091831e-01
        74         4        4.989019e-01
        75         4       -2.286414e-02
        76         4        2.306025e-01
        77         4        2.084295e+00
        78         4       -3.908619e-01
        79         4        2.463609e+00
        80         4       -6.370073e-02
        81         4       -5.693944e-01
        82         4       -2.772516e-01
        83         4        4.110946e-02
        84         4       -1.226922e+00
        85         4       -4.346732e-01
        86         4        1.330966e+00
        87         4       -1.775549e-02
        88         4        2.358214e-01
        89         4       -4.433124e-01
        90         4        3.369116e-01
        91         4       -1.633052e+00
        92         4       -5.131428e-01
        93         4       -3.962571e-01
        94         4       -1.680160e+00
        95         4       -3.260402e-01
        96         4        5.912448e-01
        97         4        4.830804e-01
        98         4        5.851296e-01
        99         4       -8.159136e-01
       100         4       -4.049530e-01
         1         5       -3.535371e-01
         2         5        6.960518e-01
         3         5       -7.822722e-01
         4         5        1.512226e+00
         5         5       -1.157369e-01
         6         5        1.710772e-01
         7         5        1.681295e+00
         8         5       -5.577092e-01
         9         5       -1.121989e+00
        10         5        1.253385e-01
        11         5       -3.013013e-02
        12         5       -5.670765e-01
        13         5       -1.555676e+00
        14         5        1.881313e-01
        15         5        2.378297e-01
        16         5        1.360457e+00
        17         5       -4.484292e-01
        18         5        4.241390e-02
        19         5       -1.425620e+00
        20         5       -1.390209e-02
        21         5       -1.020549e+00
        22         5        9.378739e-01
        23         5        9.840422e-01
        24         5       -2.716255e-01
        25         5        5.240810e-01
        26         5       -1.717141e+00
        27         5        1.970413e+00
        28         5        2.266731e-01
        29         5        1.174519e-03
        30         5        3.857175e-01
        31         5       -1.782930e+00
        32         5       -2.723122e-01
        33         5        4.383690e-01
        34         5       -8.963994e-01
        35         5       -8.336685e-02
        36         5       -1.826721e+00
        37         5       -7.960853e-01
        38         5        1.551773e+00
        39         5       -6.792520e-01
        40         5       -4.158951e-02
        41         5        5.130340e-01
        42         5       -4.347975e-01
        43         5       -1.018348e+00
        44         5        1.329822e+00
        45         5       -6.160781e-01
        46         5       -1.522051e+00
        47         5        4.863286e-01
        48         5       -1.821755e-01
        49         5       -8.862760e-01
        50         5        7.890486e-01
        51         5       -7.279604e-01
        52         5       -3.645542e-01
        53         5        4.587004e-01
        54         5       -6.089863e-01
        55         5        4.499403e-01
        56         5       -5.699731e-01
        57         5        2.042668e+00
        58         5       -4.433643e-02
        59         5       -4.351320e-02
        60         5        3.268918e-01
        61         5       -1.862933e-01
        62         5       -5.230111e-01
        63         5        8.713274e-02
        64         5       -1.470675e+00
        65         5       -1.759145e+00
        66         5        1.270025e+00
        67         5       -1.863434e+00
        68         5        1.159228e+00
        69         5       -3.867246e-01
        70         5        7.856040e-01
        71         5       -3.332660e-01
        72         5       -4.594929e-01
        73         5        4.480437e-01
        74         5        6.777681e-01
        75         5        4.311826e-01
        76         5       -2.075725e+00
        77         5       -8.627167e-01
        78         5        1.768949e+00
        79         5        7.087836e-01
        80         5       -6.930280e-01
        81         5        1.582681e+00
        82         5        5.937862e-01
        83         5        3.224554e-01
        84         5        3.023222e-01
        85         5       -6.211803e-02
        86         5        8.746218e-01
        87         5       -4.817884e-01
        88         5       -4.806928e-01
        89         5        5.227472e-01
        90         5       -1.915990e+00
        91         5       -1.055675e+00
        92         5        1.989242e+00
        93         5       -1.730314e+00
        94         5       -1.783913e+00
        95         5        4.277274e-01
        96         5       -1.766488e+00
        97         5       -5.538960e-01
        98         5       -2.782946e-01
        99         5        1.091165e+00
       100         5       -1.929965e+00
;

param theta:=
    1        1.078989e+00
    2       -5.681113e-01
    3        6.542985e-01
    4       -1.454816e+00
    5        3.147833e-01
;
param X_true:=
    1        1.052025e+00
    2       -2.307589e+00
    3        4.133708e+00
    4       -4.536856e-01
    5       -9.233079e-01
    6        1.263358e+00
    7       -2.129682e+00
    8       -3.938818e+00
    9       -3.412585e+00
   10       -3.897231e-01
   11        2.971162e-01
   12       -4.136527e+00
   13       -2.014281e+00
   14       -1.779779e+00
   15       -1.844058e+00
   16       -9.583579e-01
   17        3.393727e-01
   18       -1.692968e-01
   19        6.522744e-01
   20        3.911156e-02
   21        1.095395e+00
   22       -9.241784e-01
   23        7.007239e-01
   24       -6.271387e+00
   25        2.119731e+00
   26       -2.925113e+00
   27       -1.253390e+00
   28       -7.568308e-01
   29        3.296759e+00
   30        2.202832e+00
   31       -9.524206e-01
   32       -1.504982e+00
   33       -7.826297e-01
   34        7.121715e-01
   35       -2.571501e+00
   36       -3.050824e-02
   37       -3.827144e-01
   38       -9.355729e-01
   39       -7.486876e-02
   40       -2.177195e+00
   41        6.319334e-02
   42       -1.427765e+00
   43       -7.052559e-01
   44        1.853430e+00
   45        1.531839e+00
   46       -4.795517e+00
   47       -4.776997e+00
   48       -1.851910e+00
   49        5.214020e-01
   50        9.201825e-01
   51       -2.413299e+00
   52       -4.825832e-01
   53        1.848844e-01
   54        3.927146e-01
   55        6.831689e-01
   56       -1.561700e+00
   57       -3.241573e-01
   58        5.897966e-01
   59        1.772132e+00
   60        1.667113e+00
   61       -4.066708e+00
   62       -4.940486e-01
   63       -6.770159e-01
   64        1.705863e+00
   65       -1.438068e+00
   66       -2.040492e+00
   67        1.356002e+00
   68        2.799433e-01
   69        1.948417e-01
   70        1.978650e+00
   71       -4.497153e-01
   72        1.191896e+00
   73        1.476900e+00
   74       -3.223289e-01
   75        3.056746e-01
   76       -7.039489e-01
   77       -4.654071e+00
   78        1.315783e+00
   79       -4.297517e+00
   80       -7.579168e-01
   81        2.864705e+00
   82        1.280600e+00
   83        1.111771e+00
   84        1.589095e+00
   85       -6.509603e-01
   86       -2.594952e+00
   87       -6.944453e-01
   88       -2.461703e+00
   89        1.256868e+00
   90       -1.128985e+00
   91        5.144950e-01
   92        1.913836e+00
   93       -3.314074e+00
   94        3.667785e+00
   95       -1.766974e+00
   96       -1.667947e+00
   97       -3.670830e+00
   98       -2.125506e-02
   99        3.235684e-01
  100       -3.429771e-01
;
param X:=
    1        1.052025e+00
    2       -2.307589e+00
    3        4.133708e+00
    4        1.086323e+00
    5       -9.233079e-01
    6        1.263358e+00
    7       -2.129682e+00
    8       -3.938818e+00
    9       -3.412585e+00
   10       -3.897231e-01
   11        2.971162e-01
   12        8.945538e-01
   13       -5.486203e-01
   14       -1.779779e+00
   15       -1.844058e+00
   16       -9.583579e-01
   17        3.393727e-01
   18       -1.692968e-01
   19        6.522744e-01
   20        3.911156e-02
   21        1.095395e+00
   22       -9.241784e-01
   23        7.007239e-01
   24       -6.271387e+00
   25        2.119731e+00
   26       -2.925113e+00
   27       -1.253390e+00
   28       -7.568308e-01
   29        3.296759e+00
   30        2.202832e+00
   31       -9.524206e-01
   32       -1.504982e+00
   33       -7.826297e-01
   34        7.121715e-01
   35       -2.571501e+00
   36       -3.050824e-02
   37       -3.020435e-01
   38       -9.355729e-01
   39       -7.486876e-02
   40       -2.177195e+00
   41        6.319334e-02
   42       -1.427765e+00
   43       -7.052559e-01
   44        6.834895e-01
   45        1.531839e+00
   46       -4.795517e+00
   47       -4.776997e+00
   48       -1.851910e+00
   49        2.026195e+00
   50        9.201825e-01
   51       -2.413299e+00
   52       -4.825832e-01
   53        1.848844e-01
   54        3.927146e-01
   55        6.831689e-01
   56       -1.561700e+00
   57       -3.241573e-01
   58        5.897966e-01
   59        1.772132e+00
   60        1.667113e+00
   61       -4.066708e+00
   62       -4.940486e-01
   63       -1.585687e+00
   64        1.705863e+00
   65       -1.438068e+00
   66       -2.040492e+00
   67        1.738729e+00
   68        2.799433e-01
   69        1.948417e-01
   70        1.978650e+00
   71       -4.497153e-01
   72        1.191896e+00
   73        1.476900e+00
   74       -3.223289e-01
   75        3.056746e-01
   76       -7.039489e-01
   77       -4.654071e+00
   78        9.251932e-01
   79       -4.297517e+00
   80       -7.579168e-01
   81        2.864705e+00
   82        1.280600e+00
   83        1.111771e+00
   84        1.589095e+00
   85       -6.509603e-01
   86       -2.594952e+00
   87       -6.944453e-01
   88       -2.461703e+00
   89        1.256868e+00
   90       -1.128985e+00
   91        5.144950e-01
   92        1.913836e+00
   93       -3.314074e+00
   94        3.667785e+00
   95        1.460564e+00
   96       -1.667947e+00
   97       -3.670830e+00
   98       -2.125506e-02
   99        3.235684e-01
  100       -3.429771e-01
;
param outliervec:=
    1    0
    2    0
    3    0
    4    1
    5    0
    6    0
    7    0
    8    0
    9    0
   10    0
   11    0
   12    1
   13    1
   14    0
   15    0
   16    0
   17    0
   18    0
   19    0
   20    0
   21    0
   22    0
   23    0
   24    0
   25    0
   26    0
   27    0
   28    0
   29    0
   30    0
   31    0
   32    0
   33    0
   34    0
   35    0
   36    0
   37    1
   38    0
   39    0
   40    0
   41    0
   42    0
   43    0
   44    1
   45    0
   46    0
   47    0
   48    0
   49    1
   50    0
   51    0
   52    0
   53    0
   54    0
   55    0
   56    0
   57    0
   58    0
   59    0
   60    0
   61    0
   62    0
   63    1
   64    0
   65    0
   66    0
   67    1
   68    0
   69    0
   70    0
   71    0
   72    0
   73    0
   74    0
   75    0
   76    0
   77    0
   78    1
   79    0
   80    0
   81    0
   82    0
   83    0
   84    0
   85    0
   86    0
   87    0
   88    0
   89    0
   90    0
   91    0
   92    0
   93    0
   94    0
   95    1
   96    0
   97    0
   98    0
   99    0
  100    0
;